(set-logic QF_S)
(declare-fun var0 () Int)
(declare-fun var1 () Int)
(declare-fun var2 () String)
(declare-fun var3 () String)
(declare-fun var4 () String)
(declare-fun var5 () Int)
(declare-fun var6 () Int)
(declare-fun var7 () String)
(assert (< var0 var1))
(assert (str.in.re var2 re.allchar))
(assert (str.prefixof (str.at var3 109) (str.substr var4 var5 var6)))
(assert (> (str.to.int (str.replace var7 var3 var4)) (str.to.int (str.substr var3 var0 var6))))
(check-sat)